data;


param FN:= 6;
param D:= 100;
param U_Original:=
         1         1        1.120889e+00
         2         1       -1.484284e+00
         3         1        8.886445e-01
         4         1        1.110093e+00
         5         1       -6.818869e-02
         6         1       -5.959790e-01
         7         1       -8.180448e-01
         8         1       -1.685412e+00
         9         1        1.816580e+00
        10         1       -1.601569e+00
        11         1        1.045692e-01
        12         1        5.618307e-01
        13         1       -9.322936e-01
        14         1        4.498894e-01
        15         1        8.182366e-01
        16         1       -1.252736e+00
        17         1       -1.434115e+00
        18         1        8.346240e-01
        19         1       -1.439395e+00
        20         1       -1.541515e-01
        21         1        2.336811e-01
        22         1       -7.392679e-01
        23         1       -2.171628e-01
        24         1        8.545917e-02
        25         1        6.192521e-01
        26         1        1.708936e-01
        27         1       -9.763015e-01
        28         1        8.236165e-01
        29         1        7.177139e-02
        30         1        8.515047e-01
        31         1        4.363830e-01
        32         1        9.454352e-01
        33         1        1.867275e+00
        34         1       -6.547247e-01
        35         1       -3.658580e-02
        36         1        2.198806e-01
        37         1        3.078422e-01
        38         1       -2.519606e-01
        39         1       -1.314468e-01
        40         1       -1.174876e+00
        41         1        4.751973e-01
        42         1        8.146912e-01
        43         1        3.075900e-01
        44         1       -9.748656e-01
        45         1       -1.111904e+00
        46         1        1.005869e+00
        47         1       -1.131296e-01
        48         1        1.416804e+00
        49         1       -1.110742e-01
        50         1        1.022270e-01
        51         1       -8.266702e-01
        52         1        2.262838e-01
        53         1        7.501771e-01
        54         1        1.618572e-01
        55         1       -9.614126e-01
        56         1        6.248651e-01
        57         1        1.038227e+00
        58         1        7.394078e-01
        59         1       -4.389383e-01
        60         1       -2.563919e+00
        61         1        3.245860e-01
        62         1        7.819536e-01
        63         1       -3.045977e-01
        64         1        1.369021e+00
        65         1       -7.560579e-02
        66         1       -9.347374e-01
        67         1       -7.476385e-01
        68         1       -2.597442e+00
        69         1       -1.344338e+00
        70         1       -1.103444e+00
        71         1        2.590056e+00
        72         1        1.475570e-01
        73         1        2.154286e-01
        74         1       -3.084022e-01
        75         1       -1.477707e-01
        76         1        6.691590e-01
        77         1       -8.225726e-01
        78         1        2.429475e-01
        79         1       -1.953787e+00
        80         1        6.403340e-01
        81         1       -2.664483e-01
        82         1        2.662837e-01
        83         1        1.499187e+00
        84         1        1.794555e-01
        85         1       -6.681648e-01
        86         1       -1.156878e+00
        87         1       -1.060719e+00
        88         1       -3.026328e-01
        89         1       -3.753158e-01
        90         1       -1.420679e-01
        91         1       -2.815385e-01
        92         1       -3.810326e-01
        93         1       -7.187088e-01
        94         1        1.496040e+00
        95         1       -1.657062e+00
        96         1        8.870891e-01
        97         1        6.742374e-01
        98         1       -7.092581e-01
        99         1        5.294312e-01
       100         1       -3.497307e-01
         1         2       -2.535493e-01
         2         2       -2.190488e+00
         3         2        2.323813e+00
         4         2       -4.245143e-01
         5         2       -8.641563e-03
         6         2        7.831494e-01
         7         2       -1.555546e+00
         8         2       -8.739140e-01
         9         2       -1.206507e+00
        10         2        1.305503e+00
        11         2       -5.325259e-01
        12         2        1.133584e+00
        13         2        1.296028e+00
        14         2       -9.528439e-01
        15         2       -1.239412e+00
        16         2       -5.765228e-01
        17         2        1.852515e+00
        18         2       -6.682492e-01
        19         2       -9.196069e-01
        20         2        1.348564e+00
        21         2       -7.553216e-01
        22         2        8.488810e-01
        23         2       -1.500578e+00
        24         2       -1.480389e+00
        25         2       -1.635753e+00
        26         2        1.354025e-01
        27         2        9.775062e-01
        28         2        8.085667e-02
        29         2       -1.566727e+00
        30         2       -7.034604e-01
        31         2       -7.518268e-01
        32         2        1.124608e+00
        33         2       -4.900639e-01
        34         2       -8.516258e-01
        35         2        9.862954e-01
        36         2        1.664248e+00
        37         2        2.190089e+00
        38         2       -1.366802e+00
        39         2       -1.046674e+00
        40         2        1.572984e+00
        41         2       -1.873702e+00
        42         2        1.659222e-02
        43         2       -3.684459e-01
        44         2        9.876421e-01
        45         2        7.171158e-01
        46         2        2.024638e-01
        47         2        9.757658e-01
        48         2        5.904942e-01
        49         2       -6.711958e-01
        50         2        1.692453e+00
        51         2        4.125543e-01
        52         2        8.164976e-01
        53         2        9.879530e-03
        54         2        6.590026e-02
        55         2       -9.091420e-01
        56         2       -3.343181e-01
        57         2        1.842779e+00
        58         2       -9.873528e-01
        59         2        9.231959e-01
        60         2       -1.574194e+00
        61         2        1.689737e+00
        62         2        8.155359e-01
        63         2        4.193533e-01
        64         2        1.146533e+00
        65         2        5.357925e-01
        66         2        5.310889e-01
        67         2       -1.204819e+00
        68         2        6.256841e-01
        69         2       -3.114699e-01
        70         2        1.757076e+00
        71         2       -1.290563e+00
        72         2        4.882635e-01
        73         2        1.599581e+00
        74         2       -2.269722e-01
        75         2       -7.433110e-01
        76         2        3.548985e-01
        77         2        7.956068e-01
        78         2        8.162536e-01
        79         2       -5.462733e-01
        80         2        4.306777e-01
        81         2       -2.683821e-01
        82         2       -2.012611e+00
        83         2       -8.322015e-01
        84         2        2.017195e+00
        85         2        7.200416e-01
        86         2        1.078979e+00
        87         2       -2.245742e-01
        88         2        4.236835e-01
        89         2       -8.335928e-02
        90         2        6.753379e-01
        91         2        1.183328e-01
        92         2        1.032063e+00
        93         2        1.357723e+00
        94         2        1.619357e+00
        95         2        2.061236e+00
        96         2       -1.674339e-01
        97         2       -2.620548e+00
        98         2       -8.592356e-01
        99         2       -1.102644e+00
       100         2       -2.974911e-02
         1         3       -2.139166e-01
         2         3        1.515247e-01
         3         3        1.970163e-01
         4         3        3.359527e-01
         5         3       -4.682235e-01
         6         3       -4.932699e-03
         7         3        2.845972e-02
         8         3        8.435303e-01
         9         3        4.274521e-01
        10         3       -4.325409e-01
        11         3        3.335944e-01
        12         3        2.349526e-01
        13         3       -3.811009e-02
        14         3       -1.359050e-01
        15         3        1.264034e+00
        16         3        6.860110e-01
        17         3        1.441317e+00
        18         3       -7.603589e-01
        19         3        2.096919e-01
        20         3        1.080668e-02
        21         3        1.349436e+00
        22         3        8.923753e-01
        23         3        1.630081e-01
        24         3       -3.812659e-01
        25         3       -1.015626e+00
        26         3       -4.470246e-01
        27         3        1.602447e+00
        28         3       -7.528245e-01
        29         3       -4.843368e-01
        30         3        7.059967e-01
        31         3       -2.165305e+00
        32         3       -3.166633e-01
        33         3        1.430164e-01
        34         3       -1.517959e-01
        35         3       -2.181352e-01
        36         3        7.973216e-01
        37         3        8.168488e-01
        38         3        5.696253e-01
        39         3       -2.283870e-01
        40         3        1.230906e+00
        41         3       -5.875312e-01
        42         3       -6.359162e-01
        43         3        1.612161e+00
        44         3        1.055725e+00
        45         3        1.396697e+00
        46         3       -3.946268e-01
        47         3       -9.458179e-02
        48         3       -3.386999e-02
        49         3        1.378442e-01
        50         3       -5.686817e-01
        51         3       -1.595429e+00
        52         3       -7.532366e-01
        53         3       -8.454832e-01
        54         3        9.555920e-01
        55         3       -8.199678e-02
        56         3       -1.118256e+00
        57         3        1.123000e+00
        58         3       -1.970195e+00
        59         3        1.645363e+00
        60         3        9.741049e-02
        61         3       -4.132185e-01
        62         3        5.685341e-01
        63         3        6.705648e-01
        64         3        2.053961e-02
        65         3       -1.170291e+00
        66         3       -4.013532e-02
        67         3       -1.277014e+00
        68         3        1.827191e+00
        69         3        1.141446e+00
        70         3       -5.181909e-01
        71         3       -5.027854e-01
        72         3        1.019606e+00
        73         3        6.466827e-01
        74         3       -4.433824e-01
        75         3        1.513042e-01
        76         3        1.809274e-01
        77         3       -2.018747e+00
        78         3        1.224188e+00
        79         3        3.507326e-01
        80         3        1.135032e+00
        81         3       -4.967684e-01
        82         3       -1.487283e+00
        83         3        2.733737e-01
        84         3        2.497265e-01
        85         3        1.787186e+00
        86         3       -9.450804e-02
        87         3        6.092458e-01
        88         3        3.964952e-01
        89         3        7.553397e-01
        90         3       -1.272600e+00
        91         3        6.590241e-01
        92         3        8.687091e-01
        93         3        4.287673e-01
        94         3       -9.470919e-01
        95         3        6.378003e-02
        96         3        4.524499e-01
        97         3        1.630681e+00
        98         3       -6.343716e-01
        99         3        9.037623e-01
       100         3       -5.385788e-01
         1         4       -4.407784e-01
         2         4       -1.914730e+00
         3         4       -1.795640e-01
         4         4        3.253843e-01
         5         4       -6.394354e-01
         6         4        3.708198e-01
         7         4       -2.540004e-01
         8         4        9.564186e-01
         9         4       -1.562573e+00
        10         4       -1.571658e+00
        11         4        3.367850e-01
        12         4       -1.937712e+00
        13         4       -4.487320e-01
        14         4        3.690030e-02
        15         4       -9.610281e-02
        16         4        3.962726e-01
        17         4        4.091448e-01
        18         4        3.521769e-02
        19         4       -9.125511e-01
        20         4        3.207607e-01
        21         4       -2.386710e-01
        22         4       -8.469702e-01
        23         4        1.324933e+00
        24         4        2.698651e-01
        25         4       -6.935946e-01
        26         4        2.139649e-01
        27         4        9.973248e-01
        28         4       -2.362619e+00
        29         4       -1.611125e-01
        30         4        3.585521e-01
        31         4        1.768482e+00
        32         4        2.210848e+00
        33         4       -1.062813e+00
        34         4        1.693876e+00
        35         4       -7.574228e-01
        36         4       -1.318800e+00
        37         4       -9.545964e-01
        38         4        3.171283e-01
        39         4       -2.131796e+00
        40         4        1.116660e-01
        41         4        1.390135e-01
        42         4        1.166961e+00
        43         4       -3.371224e-01
        44         4        4.444496e-01
        45         4        2.745413e-01
        46         4        8.777241e-01
        47         4       -4.876046e-01
        48         4       -5.560723e-01
        49         4        5.167604e-01
        50         4       -4.060153e-01
        51         4        9.277322e-01
        52         4        6.915150e-01
        53         4        2.543225e-01
        54         4        3.120793e-01
        55         4       -1.069105e+00
        56         4        2.008857e-01
        57         4       -3.578113e-01
        58         4       -2.800555e-01
        59         4        3.003422e-01
        60         4        9.465105e-01
        61         4        8.384290e-01
        62         4        5.677945e-01
        63         4        8.834511e-01
        64         4        8.410245e-01
        65         4       -3.776736e-01
        66         4       -1.359931e-01
        67         4        7.396706e-01
        68         4        8.204489e-01
        69         4       -2.021848e+00
        70         4        3.966663e-02
        71         4       -2.087950e+00
        72         4        7.374703e-01
        73         4        1.763817e+00
        74         4        2.934430e-01
        75         4       -7.068922e-01
        76         4        6.582639e-02
        77         4       -2.192462e+00
        78         4        1.555128e+00
        79         4       -1.040499e+00
        80         4       -6.633395e-01
        81         4        6.037769e-01
        82         4        7.003368e-01
        83         4       -4.082061e-01
        84         4        1.215586e+00
        85         4       -1.058584e+00
        86         4        2.151240e-01
        87         4        5.043506e-01
        88         4       -3.060127e-02
        89         4       -4.923815e-01
        90         4        1.537511e+00
        91         4       -4.156339e-01
        92         4       -8.752282e-01
        93         4       -9.002088e-01
        94         4       -1.285090e+00
        95         4       -8.245768e-01
        96         4       -3.335239e-01
        97         4        2.240639e-01
        98         4        2.167737e+00
        99         4       -3.456552e-01
       100         4        1.725910e+00
         1         5        5.970179e-01
         2         5        3.491958e-01
         3         5        1.554782e+00
         4         5       -2.033982e+00
         5         5       -1.409661e+00
         6         5       -2.596847e+00
         7         5        7.674974e-01
         8         5        4.453493e-01
         9         5       -5.760633e-01
        10         5       -7.779466e-01
        11         5        7.239498e-01
        12         5        1.618979e+00
        13         5       -1.375882e+00
        14         5        2.324005e+00
        15         5       -5.293651e-01
        16         5       -1.548857e+00
        17         5        5.904966e-01
        18         5       -2.474561e+00
        19         5       -4.158247e-01
        20         5       -1.272951e+00
        21         5       -1.063598e+00
        22         5        1.360249e-01
        23         5        3.330248e-01
        24         5       -2.727273e+00
        25         5       -1.814480e+00
        26         5        3.499720e-01
        27         5       -7.091180e-01
        28         5       -1.192262e+00
        29         5       -7.755935e-01
        30         5        1.340420e+00
        31         5        4.838769e-01
        32         5       -2.919175e-01
        33         5        9.131993e-01
        34         5        4.069875e-01
        35         5        3.156435e-01
        36         5        1.199056e-01
        37         5       -4.723615e-01
        38         5       -7.633577e-01
        39         5       -1.427576e+00
        40         5       -1.725718e+00
        41         5       -1.099520e+00
        42         5       -1.084430e+00
        43         5        9.331820e-01
        44         5       -9.437383e-01
        45         5        7.201858e-01
        46         5        3.146527e-01
        47         5        2.120243e+00
        48         5       -5.378859e-01
        49         5       -5.192656e-01
        50         5       -6.487422e-01
        51         5        5.731497e-01
        52         5        7.113005e-01
        53         5       -5.577574e-01
        54         5       -1.047462e+00
        55         5        3.587436e+00
        56         5       -1.375615e+00
        57         5        9.733949e-01
        58         5        1.245066e+00
        59         5        1.274436e+00
        60         5       -7.045650e-01
        61         5       -1.446213e+00
        62         5        1.005249e+00
        63         5        6.398414e-01
        64         5       -6.694643e-01
        65         5       -1.793224e+00
        66         5       -2.181705e+00
        67         5       -7.040369e-01
        68         5       -2.575383e+00
        69         5       -2.767821e-02
        70         5       -3.903442e-01
        71         5       -1.677113e+00
        72         5        2.001054e-02
        73         5       -4.518235e-01
        74         5       -1.352204e+00
        75         5        2.134812e+00
        76         5        1.165495e-01
        77         5       -9.686828e-02
        78         5       -4.025409e-01
        79         5       -8.567136e-01
        80         5        8.266845e-01
        81         5       -9.454091e-01
        82         5        2.676895e+00
        83         5       -2.714842e-02
        84         5       -1.359697e+00
        85         5       -1.101289e-01
        86         5       -9.785395e-01
        87         5       -5.421104e-01
        88         5        2.081482e+00
        89         5        7.936417e-01
        90         5       -2.428757e-01
        91         5       -6.660902e-01
        92         5       -7.994435e-01
        93         5       -5.604103e-01
        94         5        2.884935e-01
        95         5       -6.681493e-01
        96         5       -1.753839e+00
        97         5        5.860611e-01
        98         5        1.610379e-03
        99         5        3.319280e-01
       100         5       -6.434798e-01
;
param X_Original:=
    1       -1.508459e+00
    2        5.752364e-01
    3       -5.362992e-01
    4       -1.675144e-01
    5        1.471943e+00
    6        1.742575e-01
    7       -4.219503e-01
    8        5.598374e-01
    9        1.039548e+00
   10        7.533704e-01
   11        4.335829e-01
   12       -2.649134e-01
   13       -2.386035e-01
   14        6.835357e-01
   15        1.600664e+00
   16       -3.274496e-01
   17        7.437945e-01
   18        1.659612e+00
   19       -3.103495e-01
   20        4.730695e-01
   21       -1.091745e+00
   22       -3.666778e-02
   23       -1.551565e-01
   24       -6.677322e-01
   25       -1.027476e+00
   26        2.437894e-01
   27       -4.327783e-01
   28        2.773815e-01
   29       -5.357804e-01
   30       -2.460635e+00
   31        3.942525e-01
   32       -1.595061e+00
   33        1.630594e+00
   34        5.476750e-02
   35       -1.158389e+00
   36        8.387410e-01
   37       -2.328300e-01
   38       -6.662231e-01
   39        5.285199e-01
   40       -1.495354e+00
   41       -7.308190e-01
   42        7.439265e-01
   43       -1.016410e+00
   44       -2.120177e+00
   45       -7.326730e-02
   46        8.296402e-03
   47       -1.138448e+00
   48        2.509400e-02
   49        1.344601e+00
   50       -1.267140e+00
   51       -1.995962e-01
   52       -1.392903e+00
   53        4.217177e-01
   54       -2.023579e+00
   55       -1.168418e+00
   56       -8.048999e-01
   57       -8.018495e-01
   58       -4.436829e-01
   59        8.597042e-01
   60       -2.046036e-01
   61       -1.018090e+00
   62       -5.287623e-01
   63       -1.273493e-01
   64        5.498990e-01
   65       -1.684720e+00
   66        5.619832e-01
   67       -1.035755e+00
   68       -1.069794e+00
   69       -3.370575e-02
   70       -2.182861e+00
   71       -4.233550e-01
   72       -7.419872e-01
   73        7.943976e-01
   74       -6.676883e-02
   75       -3.449072e-02
   76        2.027905e+00
   77       -1.079641e+00
   78        5.138326e-01
   79        1.693197e-01
   80        1.128643e+00
   81       -3.455104e-01
   82       -1.065633e+00
   83       -5.601049e-01
   84       -6.805105e-01
   85        2.180372e+00
   86        1.008551e+00
   87       -1.637193e+00
   88        6.666397e-01
   89        8.035470e-01
   90        6.753567e-01
   91       -2.472212e-01
   92        9.416517e-01
   93       -8.593380e-01
   94       -1.444057e+00
   95       -8.522652e-01
   96        7.102379e-01
   97        3.018908e-02
   98        6.648173e-01
   99       -1.735497e+00
  100       -2.343374e+00
;
param outliervec_original :=
    1    1
    2    1
    3    0
    4    1
    5    0
    6    1
    7    0
    8    1
    9    1
   10    1
   11    1
   12    1
   13    1
   14    1
   15    1
   16    1
   17    1
   18    1
   19    1
   20    1
   21    1
   22    1
   23    1
   24    1
   25    1
   26    1
   27    1
   28    1
   29    1
   30    1
   31    1
   32    1
   33    1
   34    1
   35    1
   36    1
   37    1
   38    1
   39    1
   40    0
   41    1
   42    1
   43    1
   44    1
   45    1
   46    1
   47    0
   48    1
   49    1
   50    1
   51    1
   52    0
   53    1
   54    1
   55    1
   56    1
   57    1
   58    1
   59    1
   60    1
   61    1
   62    1
   63    1
   64    0
   65    1
   66    1
   67    0
   68    1
   69    1
   70    0
   71    1
   72    1
   73    1
   74    1
   75    1
   76    1
   77    1
   78    1
   79    1
   80    1
   81    1
   82    0
   83    1
   84    1
   85    1
   86    1
   87    0
   88    1
   89    1
   90    1
   91    1
   92    1
   93    1
   94    1
   95    1
   96    1
   97    1
   98    1
   99    1
  100    0
;
param d:= 56;
param r:=5;
param p:=0.880000;
param M:=1000;
param U:=
         1         1       -1.484284e+00
         2         1        8.886445e-01
         3         1        1.110093e+00
         4         1       -1.685412e+00
         5         1        1.816580e+00
         6         1        1.045692e-01
         7         1       -9.322936e-01
         8         1        4.498894e-01
         9         1        8.182366e-01
        10         1       -1.252736e+00
        11         1       -1.434115e+00
        12         1       -1.439395e+00
        13         1       -7.392679e-01
        14         1       -2.171628e-01
        15         1        8.545917e-02
        16         1        6.192521e-01
        17         1        1.708936e-01
        18         1        8.236165e-01
        19         1        7.177139e-02
        20         1        9.454352e-01
        21         1        1.867275e+00
        22         1       -6.547247e-01
        23         1        2.198806e-01
        24         1        3.078422e-01
        25         1       -1.314468e-01
        26         1        4.751973e-01
        27         1        1.005869e+00
        28         1        1.416804e+00
        29         1        1.022270e-01
        30         1        2.262838e-01
        31         1        6.248651e-01
        32         1        7.394078e-01
        33         1       -4.389383e-01
        34         1       -2.563919e+00
        35         1        3.245860e-01
        36         1       -3.045977e-01
        37         1       -7.560579e-02
        38         1       -7.476385e-01
        39         1       -1.103444e+00
        40         1       -3.084022e-01
        41         1       -8.225726e-01
        42         1        2.429475e-01
        43         1       -1.953787e+00
        44         1        6.403340e-01
        45         1       -2.664483e-01
        46         1        2.662837e-01
        47         1        1.794555e-01
        48         1       -6.681648e-01
        49         1       -3.026328e-01
        50         1       -3.753158e-01
        51         1       -2.815385e-01
        52         1       -3.810326e-01
        53         1        1.496040e+00
        54         1       -1.657062e+00
        55         1        8.870891e-01
        56         1       -3.497307e-01
         1         2       -2.190488e+00
         2         2        2.323813e+00
         3         2       -4.245143e-01
         4         2       -8.739140e-01
         5         2       -1.206507e+00
         6         2       -5.325259e-01
         7         2        1.296028e+00
         8         2       -9.528439e-01
         9         2       -1.239412e+00
        10         2       -5.765228e-01
        11         2        1.852515e+00
        12         2       -9.196069e-01
        13         2        8.488810e-01
        14         2       -1.500578e+00
        15         2       -1.480389e+00
        16         2       -1.635753e+00
        17         2        1.354025e-01
        18         2        8.085667e-02
        19         2       -1.566727e+00
        20         2        1.124608e+00
        21         2       -4.900639e-01
        22         2       -8.516258e-01
        23         2        1.664248e+00
        24         2        2.190089e+00
        25         2       -1.046674e+00
        26         2       -1.873702e+00
        27         2        2.024638e-01
        28         2        5.904942e-01
        29         2        1.692453e+00
        30         2        8.164976e-01
        31         2       -3.343181e-01
        32         2       -9.873528e-01
        33         2        9.231959e-01
        34         2       -1.574194e+00
        35         2        1.689737e+00
        36         2        4.193533e-01
        37         2        5.357925e-01
        38         2       -1.204819e+00
        39         2        1.757076e+00
        40         2       -2.269722e-01
        41         2        7.956068e-01
        42         2        8.162536e-01
        43         2       -5.462733e-01
        44         2        4.306777e-01
        45         2       -2.683821e-01
        46         2       -2.012611e+00
        47         2        2.017195e+00
        48         2        7.200416e-01
        49         2        4.236835e-01
        50         2       -8.335928e-02
        51         2        1.183328e-01
        52         2        1.032063e+00
        53         2        1.619357e+00
        54         2        2.061236e+00
        55         2       -1.674339e-01
        56         2       -2.974911e-02
         1         3        1.515247e-01
         2         3        1.970163e-01
         3         3        3.359527e-01
         4         3        8.435303e-01
         5         3        4.274521e-01
         6         3        3.335944e-01
         7         3       -3.811009e-02
         8         3       -1.359050e-01
         9         3        1.264034e+00
        10         3        6.860110e-01
        11         3        1.441317e+00
        12         3        2.096919e-01
        13         3        8.923753e-01
        14         3        1.630081e-01
        15         3       -3.812659e-01
        16         3       -1.015626e+00
        17         3       -4.470246e-01
        18         3       -7.528245e-01
        19         3       -4.843368e-01
        20         3       -3.166633e-01
        21         3        1.430164e-01
        22         3       -1.517959e-01
        23         3        7.973216e-01
        24         3        8.168488e-01
        25         3       -2.283870e-01
        26         3       -5.875312e-01
        27         3       -3.946268e-01
        28         3       -3.386999e-02
        29         3       -5.686817e-01
        30         3       -7.532366e-01
        31         3       -1.118256e+00
        32         3       -1.970195e+00
        33         3        1.645363e+00
        34         3        9.741049e-02
        35         3       -4.132185e-01
        36         3        6.705648e-01
        37         3       -1.170291e+00
        38         3       -1.277014e+00
        39         3       -5.181909e-01
        40         3       -4.433824e-01
        41         3       -2.018747e+00
        42         3        1.224188e+00
        43         3        3.507326e-01
        44         3        1.135032e+00
        45         3       -4.967684e-01
        46         3       -1.487283e+00
        47         3        2.497265e-01
        48         3        1.787186e+00
        49         3        3.964952e-01
        50         3        7.553397e-01
        51         3        6.590241e-01
        52         3        8.687091e-01
        53         3       -9.470919e-01
        54         3        6.378003e-02
        55         3        4.524499e-01
        56         3       -5.385788e-01
         1         4       -1.914730e+00
         2         4       -1.795640e-01
         3         4        3.253843e-01
         4         4        9.564186e-01
         5         4       -1.562573e+00
         6         4        3.367850e-01
         7         4       -4.487320e-01
         8         4        3.690030e-02
         9         4       -9.610281e-02
        10         4        3.962726e-01
        11         4        4.091448e-01
        12         4       -9.125511e-01
        13         4       -8.469702e-01
        14         4        1.324933e+00
        15         4        2.698651e-01
        16         4       -6.935946e-01
        17         4        2.139649e-01
        18         4       -2.362619e+00
        19         4       -1.611125e-01
        20         4        2.210848e+00
        21         4       -1.062813e+00
        22         4        1.693876e+00
        23         4       -1.318800e+00
        24         4       -9.545964e-01
        25         4       -2.131796e+00
        26         4        1.390135e-01
        27         4        8.777241e-01
        28         4       -5.560723e-01
        29         4       -4.060153e-01
        30         4        6.915150e-01
        31         4        2.008857e-01
        32         4       -2.800555e-01
        33         4        3.003422e-01
        34         4        9.465105e-01
        35         4        8.384290e-01
        36         4        8.834511e-01
        37         4       -3.776736e-01
        38         4        7.396706e-01
        39         4        3.966663e-02
        40         4        2.934430e-01
        41         4       -2.192462e+00
        42         4        1.555128e+00
        43         4       -1.040499e+00
        44         4       -6.633395e-01
        45         4        6.037769e-01
        46         4        7.003368e-01
        47         4        1.215586e+00
        48         4       -1.058584e+00
        49         4       -3.060127e-02
        50         4       -4.923815e-01
        51         4       -4.156339e-01
        52         4       -8.752282e-01
        53         4       -1.285090e+00
        54         4       -8.245768e-01
        55         4       -3.335239e-01
        56         4        1.725910e+00
         1         5        3.491958e-01
         2         5        1.554782e+00
         3         5       -2.033982e+00
         4         5        4.453493e-01
         5         5       -5.760633e-01
         6         5        7.239498e-01
         7         5       -1.375882e+00
         8         5        2.324005e+00
         9         5       -5.293651e-01
        10         5       -1.548857e+00
        11         5        5.904966e-01
        12         5       -4.158247e-01
        13         5        1.360249e-01
        14         5        3.330248e-01
        15         5       -2.727273e+00
        16         5       -1.814480e+00
        17         5        3.499720e-01
        18         5       -1.192262e+00
        19         5       -7.755935e-01
        20         5       -2.919175e-01
        21         5        9.131993e-01
        22         5        4.069875e-01
        23         5        1.199056e-01
        24         5       -4.723615e-01
        25         5       -1.427576e+00
        26         5       -1.099520e+00
        27         5        3.146527e-01
        28         5       -5.378859e-01
        29         5       -6.487422e-01
        30         5        7.113005e-01
        31         5       -1.375615e+00
        32         5        1.245066e+00
        33         5        1.274436e+00
        34         5       -7.045650e-01
        35         5       -1.446213e+00
        36         5        6.398414e-01
        37         5       -1.793224e+00
        38         5       -7.040369e-01
        39         5       -3.903442e-01
        40         5       -1.352204e+00
        41         5       -9.686828e-02
        42         5       -4.025409e-01
        43         5       -8.567136e-01
        44         5        8.266845e-01
        45         5       -9.454091e-01
        46         5        2.676895e+00
        47         5       -1.359697e+00
        48         5       -1.101289e-01
        49         5        2.081482e+00
        50         5        7.936417e-01
        51         5       -6.660902e-01
        52         5       -7.994435e-01
        53         5        2.884935e-01
        54         5       -6.681493e-01
        55         5       -1.753839e+00
        56         5       -6.434798e-01
;

param theta:=
    1        1.332609e+00
    2       -4.839482e-01
    3        3.974151e-02
    4       -1.283719e+00
    5       -5.365702e-01
;
param X_true:=
    1        1.358743e+00
    2       -5.362992e-01
    3        2.371786e+00
    4       -3.256277e+00
    5        5.336670e+00
    6       -4.104650e-01
    7       -5.568051e-01
    8       -2.391085e-01
    9        2.147846e+00
   10       -1.040769e+00
   11       -3.592426e+00
   12       -7.019714e-02
   13       -3.462201e-01
   14       -1.436246e+00
   15        1.932105e+00
   16        3.440455e+00
   17       -3.180143e-01
   18        4.701183e+00
   19        1.457593e+00
   20       -1.978416e+00
   21        3.605555e+00
   22       -2.859221e+00
   23        1.147923e+00
   24        8.616951e-01
   25        3.824914e+00
   26        1.928193e+00
   27       -6.881956e-02
   28        2.603385e+00
   29        1.638744e-01
   30       -1.392903e+00
   31        1.430285e+00
   32        1.076318e+00
   33       -2.035702e+00
   34       -3.488007e+00
   35       -7.019337e-01
   36       -2.059629e+00
   37        1.040459e+00
   38       -1.035755e+00
   39       -2.182861e+00
   40        3.009630e-02
   41        1.305054e+00
   42       -1.802976e+00
   43       -5.299326e-01
   44        1.097965e+00
   45       -5.127325e-01
   46       -1.065633e+00
   47       -1.558048e+00
   48        2.501764e-01
   49       -1.670152e+00
   50       -2.235542e-01
   51        4.847043e-01
   52        5.797962e-01
   53        2.667211e+00
   54       -1.786179e+00
   55        2.650362e+00
   56       -2.343374e+00
;
param X:=
    1        5.752364e-01
    2       -5.362992e-01
    3       -1.675144e-01
    4        5.598374e-01
    5        1.039548e+00
    6        4.335829e-01
    7       -2.386035e-01
    8        6.835357e-01
    9        1.600664e+00
   10       -3.274496e-01
   11        7.437945e-01
   12       -3.103495e-01
   13       -3.666778e-02
   14       -1.551565e-01
   15       -6.677322e-01
   16       -1.027476e+00
   17        2.437894e-01
   18        2.773815e-01
   19       -5.357804e-01
   20       -1.595061e+00
   21        1.630594e+00
   22        5.476750e-02
   23        8.387410e-01
   24       -2.328300e-01
   25        5.285199e-01
   26       -7.308190e-01
   27        8.296402e-03
   28        2.509400e-02
   29       -1.267140e+00
   30       -1.392903e+00
   31       -8.048999e-01
   32       -4.436829e-01
   33        8.597042e-01
   34       -2.046036e-01
   35       -1.018090e+00
   36       -1.273493e-01
   37       -1.684720e+00
   38       -1.035755e+00
   39       -2.182861e+00
   40       -6.676883e-02
   41       -1.079641e+00
   42        5.138326e-01
   43        1.693197e-01
   44        1.128643e+00
   45       -3.455104e-01
   46       -1.065633e+00
   47       -6.805105e-01
   48        2.180372e+00
   49        6.666397e-01
   50        8.035470e-01
   51       -2.472212e-01
   52        9.416517e-01
   53       -1.444057e+00
   54       -8.522652e-01
   55        7.102379e-01
   56       -2.343374e+00
;
param outliervec:=
    1    1
    2    0
    3    1
    4    1
    5    1
    6    1
    7    1
    8    1
    9    1
   10    1
   11    1
   12    1
   13    1
   14    1
   15    1
   16    1
   17    1
   18    1
   19    1
   20    1
   21    1
   22    1
   23    1
   24    1
   25    1
   26    1
   27    1
   28    1
   29    1
   30    0
   31    1
   32    1
   33    1
   34    1
   35    1
   36    1
   37    1
   38    0
   39    0
   40    1
   41    1
   42    1
   43    1
   44    1
   45    1
   46    0
   47    1
   48    1
   49    1
   50    1
   51    1
   52    1
   53    1
   54    1
   55    1
   56    0
; 
param greedy_time :=         3.804959e-01
;